516  516  516  516  -1  
372  372  372  372  -1  
444  444  444  444  -1  
708  708  708  708  -1  
474  474  474  474  -1  
660  660  660  660  -1  
826  826  826  826  -1  
492  492  492  492  -1  
466  466  466  466  -1  
740  740  740  740  -1  
482  482  482  482  -1  
420  420  420  420  -1  
542  542  542  542  -1  
400  400  400  400  -1  
442  442  442  442  -1  
